
x = 50;
y = 100;
c = 5000;
n = 125;
w = [100 100 100 100 100 900 400 100 100 441 16 16 16 16 16 1 1 1 1 4 4 4 4 4 4 4 4 4 4 1 1 25 25 25 25 1 1 1 1 1 1444 81 81 81 81 4 4 4 4 1 1 9 9 9 9 9 9 9 9 9 9 9 9 4 1 1 1 1 1 1 1 1 1 1 1 1 1 1 1 1 1 1 1 1 1 1 1 1 1 1 1 1 1 36 36 36 225 9 9 9 9 9 1 1 1 1 1 1 1 1 1 1 1 1 1 1 1 1 1 1 1 1 1 1 1];
p = [100 100 100 100 100 900 400 100 100 441 16 16 16 16 16 1 1 1 1 4 4 4 4 4 4 4 4 4 4 1 1 25 25 25 25 1 1 1 1 1 1444 81 81 81 81 4 4 4 4 1 1 9 9 9 9 9 9 9 9 9 9 9 9 4 1 1 1 1 1 1 1 1 1 1 1 1 1 1 1 1 1 1 1 1 1 1 1 1 1 1 1 1 1 36 36 36 225 9 9 9 9 9 1 1 1 1 1 1 1 1 1 1 1 1 1 1 1 1 1 1 1 1 1 1 1];
s = [10 10 10 10 10 30 20 10 10 21 4 4 4 4 4 1 1 1 1 2 2 2 2 2 2 2 2 2 2 1 1 5 5 5 5 1 1 1 1 1 38 9 9 9 9 2 2 2 2 1 1 3 3 3 3 3 3 3 3 3 3 3 3 2 1 1 1 1 1 1 1 1 1 1 1 1 1 1 1 1 1 1 1 1 1 1 1 1 1 1 1 1 1 6 6 6 15 3 3 3 3 3 1 1 1 1 1 1 1 1 1 1 1 1 1 1 1 1 1 1 1 1 1 1 1];

